(set-logic QF_S)
(declare-fun var0 () String)
(declare-fun var1 () String)
(declare-fun var2 () String)
(declare-fun var3 () Int)
(declare-fun var4 () Int)
(declare-fun var5 () String)
(declare-fun var6 () Int)
(declare-fun var7 () Int)
(assert (str.in.re (str.replace var0 var1 var2) (re.+ re.allchar)))
(assert (not (> var3 var4)))
(assert (not (str.suffixof (str.at var5 var6) (str.substr var1 var7 var7))))
(assert (>= (str.indexof (str.substr "#IOY6k" 93 var3) (str.replace var0 var5 var1) (str.len var5)) (str.to.int var2)))
(check-sat)